c dimacs generated by FastEx
c f501 23
c f510 22
c f511 21
c g51 16
c s51 17
c s52 18
c s53 19
c s54 20
c x51 1
c x510 10
c x511 11
c x512 12
c x513 13
c x514 14
c x515 15
c x52 2
c x53 3
c x54 4
c x55 5
c x56 6
c x57 7
c x58 8
c x59 9
p cnf 23 186
-17 -18 -1 0
-17 -18 -2 0
-17 -18 -3 0
-17 -18 4 -23 0
-17 -18 -4 23 0
-17 -18 5 -23 0
-17 -18 -5 23 0
-17 -18 6 -23 0
-17 -18 -6 23 0
-17 -18 7 -23 0
-17 -18 -7 23 0
-17 -18 8 -22 0
-17 -18 -8 22 0
-17 -18 9 -22 0
-17 -18 -9 22 0
-17 -18 10 -22 0
-17 -18 -10 22 0
-17 -18 11 -22 0
-17 -18 -11 22 0
-17 -18 12 -21 0
-17 -18 -12 21 0
-17 -18 13 -21 0
-17 -18 -13 21 0
-17 -18 14 -21 0
-17 -18 -14 21 0
-17 -18 15 -21 0
-17 -18 -15 21 0
-17 -19 -1 0
-17 -19 2 -23 0
-17 -19 -2 23 0
-17 -19 3 -23 0
-17 -19 -3 23 0
-17 -19 -4 0
-17 -19 -5 0
-17 -19 6 -23 0
-17 -19 -6 23 0
-17 -19 7 -23 0
-17 -19 -7 23 0
-17 -19 8 -22 0
-17 -19 -8 22 0
-17 -19 9 -22 0
-17 -19 -9 22 0
-17 -19 10 -21 0
-17 -19 -10 21 0
-17 -19 11 -21 0
-17 -19 -11 21 0
-17 -19 12 -22 0
-17 -19 -12 22 0
-17 -19 13 -22 0
-17 -19 -13 22 0
-17 -19 14 -21 0
-17 -19 -14 21 0
-17 -19 15 -21 0
-17 -19 -15 21 0
-18 -19 -1 0
-18 -19 2 -23 0
-18 -19 -2 23 0
-18 -19 3 -23 0
-18 -19 -3 23 0
-18 -19 4 -22 0
-18 -19 -4 22 0
-18 -19 5 -22 0
-18 -19 -5 22 0
-18 -19 6 -21 0
-18 -19 -6 21 0
-18 -19 7 -21 0
-18 -19 -7 21 0
-18 -19 -8 0
-18 -19 -9 0
-18 -19 10 -23 0
-18 -19 -10 23 0
-18 -19 11 -23 0
-18 -19 -11 23 0
-18 -19 12 -22 0
-18 -19 -12 22 0
-18 -19 13 -22 0
-18 -19 -13 22 0
-18 -19 14 -21 0
-18 -19 -14 21 0
-18 -19 15 -21 0
-18 -19 -15 21 0
-17 -20 1 -23 0
-17 -20 -1 23 0
-17 -20 -2 0
-17 -20 3 -23 0
-17 -20 -3 23 0
-17 -20 -4 0
-17 -20 5 -23 0
-17 -20 -5 23 0
-17 -20 -6 0
-17 -20 7 -23 0
-17 -20 -7 23 0
-17 -20 8 -22 0
-17 -20 -8 22 0
-17 -20 9 -21 0
-17 -20 -9 21 0
-17 -20 10 -22 0
-17 -20 -10 22 0
-17 -20 11 -21 0
-17 -20 -11 21 0
-17 -20 12 -22 0
-17 -20 -12 22 0
-17 -20 13 -21 0
-17 -20 -13 21 0
-17 -20 14 -22 0
-17 -20 -14 22 0
-17 -20 15 -21 0
-17 -20 -15 21 0
-18 -20 1 -23 0
-18 -20 -1 23 0
-18 -20 -2 0
-18 -20 3 -23 0
-18 -20 -3 23 0
-18 -20 4 -22 0
-18 -20 -4 22 0
-18 -20 5 -21 0
-18 -20 -5 21 0
-18 -20 6 -22 0
-18 -20 -6 22 0
-18 -20 7 -21 0
-18 -20 -7 21 0
-18 -20 -8 0
-18 -20 9 -23 0
-18 -20 -9 23 0
-18 -20 -10 0
-18 -20 11 -23 0
-18 -20 -11 23 0
-18 -20 12 -22 0
-18 -20 -12 22 0
-18 -20 13 -21 0
-18 -20 -13 21 0
-18 -20 14 -22 0
-18 -20 -14 22 0
-18 -20 15 -21 0
-18 -20 -15 21 0
-19 -20 1 -23 0
-19 -20 -1 23 0
-19 -20 2 -22 0
-19 -20 -2 22 0
-19 -20 3 -21 0
-19 -20 -3 21 0
-19 -20 -4 0
-19 -20 5 -23 0
-19 -20 -5 23 0
-19 -20 6 -22 0
-19 -20 -6 22 0
-19 -20 7 -21 0
-19 -20 -7 21 0
-19 -20 -8 0
-19 -20 9 -23 0
-19 -20 -9 23 0
-19 -20 10 -22 0
-19 -20 -10 22 0
-19 -20 11 -21 0
-19 -20 -11 21 0
-19 -20 -12 0
-19 -20 13 -23 0
-19 -20 -13 23 0
-19 -20 14 -22 0
-19 -20 -14 22 0
-19 -20 15 -21 0
-19 -20 -15 21 0
-16 -1 0
-16 -2 0
-16 -3 0
-16 -4 0
-16 -5 0
-16 -6 0
-16 -7 0
-16 -8 0
-16 -9 0
-16 -10 0
-16 -11 0
-16 -12 0
-16 -13 0
-16 -14 0
-16 15 0
16 0
18 19 20 0
17 19 20 0
-17 -18 -19 0
17 18 20 0
-17 -18 -20 0
-17 -19 -20 0
-18 -19 -20 0
17 18 19 0
